Route #1: 1 16 31 37 39 27 21 6 1
Route #2: 1 4 32 2 15 13 11 34 43 38 18 1
Route #3: 1 29 40 7 41 8 23 17 20 42 1
Route #4: 1 35 33 3 30 10 19 28 12 1
Route #5: 1 22 5 25 14 24 9 1
Route #6: 1 36 26 1
cost 1880.2333545538902